param set_len = 28;
param target_sum = 3201599;
param values := [1] 16053 [2] 97544 [3] 385005 [4] 124067 [5] 344087 [6] 260928 [7] 289135 [8] 231584 [9] 395999 [10] 335283 [11] 178676 [12] 444912 [13] 285386 [14] 358438 [15] 123101 [16] 161233 [17] 127814 [18] 96497 [19] 481565 [20] 267237 [21] 1296 [22] 25848 [23] 388489 [24] 362362 [25] 175816 [26] 228931 [27] 402371 [28] 82321 ;
